(set-info :smt-lib-version 2.6)
(set-logic QF_AUFLIA)
(set-info :source |Generator: Rodin SMT Plug-in|)
(set-info :license "https://creativecommons.org/licenses/by-nc/4.0/")
(set-info :category "industrial")
(set-info :status unsat)

(declare-fun a () Int)
(declare-fun b () Int)
(declare-fun c () Int)
(declare-fun n () Int)

(assert (! (< 0 a)
         :named hyp1))
(assert (! (= c 0)
         :named hyp2))
(assert (! (<= 0 a)
         :named hyp3))
(assert (! (<= 0 b)
         :named hyp4))
(assert (! (<= 0 c)
         :named hyp5))
(assert (! (= n (+ a b c))
         :named hyp6))
(assert (! (<= 0 (+ a b c))
         :named hyp7))
(assert (! (not 
               (< (+ (* 2 (- a 1)) b 1) (+ (* 2 a) b)))
         :named goal))
(check-sat)
(exit)

